p edge 30 90
e 1 5
e 1 11
e 1 29
e 2 5
e 2 6
e 2 17
e 3 15
e 3 25
e 3 27
e 4 2
e 4 26
e 4 29
e 5 9
e 5 11
e 5 19
e 6 5
e 6 19
e 6 23
e 7 9
e 7 23
e 7 30
e 8 22
e 8 24
e 8 29
e 9 3
e 9 17
e 9 23
e 10 23
e 10 26
e 10 30
e 11 5
e 11 7
e 11 20
e 12 9
e 12 22
e 12 28
e 13 7
e 13 18
e 13 21
e 14 6
e 14 16
e 14 27
e 15 5
e 15 26
e 15 27
e 16 2
e 16 2
e 16 4
e 17 8
e 17 12
e 17 14
e 18 2
e 18 14
e 18 28
e 19 3
e 19 12
e 19 29
e 20 3
e 20 21
e 20 24
e 21 3
e 21 8
e 21 24
e 22 6
e 22 11
e 22 28
e 23 13
e 23 20
e 23 22
e 24 2
e 24 6
e 24 9
e 25 7
e 25 13
e 25 24
e 26 5
e 26 27
e 26 27
e 27 10
e 27 25
e 27 28
e 28 1
e 28 7
e 28 27
e 29 1
e 29 2
e 29 15
e 30 4
e 30 18
e 30 28
